830
[0, 35, 22, 46, 15, 36, 57, 49, 9, 4, 52, 65, 21, 62, 58, 37, 68, 30, 12, 28, 69, 34, 56, 14, 23, 1, 6, 31, 2, 7, 27, 25, 48, 54, 18, 3, 17, 41, 5, 40, 42, 16, 20, 33, 11, 59, 51, 50, 55, 64, 10, 47, 66, 53, 32, 61, 38, 44, 24, 39, 60, 8, 26, 45, 67, 43, 29, 19, 13, 63]
